p wcnf 116 301 9
1 -109 0
1 -110 0
1 -111 0
1 -112 0
1 113 0
1 114 0
1 115 0
1 116 0
9 1 0
9 2 0
9 3 0
9 4 0
9 5 0
9 6 0
9 7 0
9 -1 8 -15 0
9 -2 9 -16 0
9 -3 10 -17 0
9 -4 11 -18 0
9 -5 12 -19 0
9 -6 13 -20 0
9 -7 14 -21 0
9 -1 15 -22 0
9 -2 16 -23 0
9 -3 17 -24 0
9 -4 18 -25 0
9 -5 19 -26 0
9 -6 20 -27 0
9 -7 21 -28 0
9 -1 22 -29 0
9 -2 23 -30 0
9 -3 24 -31 0
9 -4 25 -32 0
9 -5 26 -33 0
9 -6 27 -34 0
9 -7 28 -35 0
9 -1 29 -36 0
9 -2 30 -37 0
9 -3 31 -38 0
9 -4 32 -39 0
9 -5 33 -40 0
9 -6 34 -41 0
9 -7 35 -42 0
9 -43 11 9 8 0
9 -51 18 16 15 0
9 -59 25 23 22 0
9 -67 32 30 29 0
9 -75 39 37 36 0
9 -44 9 8 0
9 -44 -11 0
9 -52 16 15 0
9 -52 -18 0
9 -60 23 22 0
9 -60 -25 0
9 -68 30 29 0
9 -68 -32 0
9 -76 37 36 0
9 -76 -39 0
9 -45 12 8 0
9 -45 -9 0
9 -53 19 15 0
9 -53 -16 0
9 -61 26 22 0
9 -61 -23 0
9 -69 33 29 0
9 -69 -30 0
9 -77 40 36 0
9 -77 -37 0
9 -46 8 0
9 -46 -12 -9 0
9 -54 15 0
9 -54 -19 -16 0
9 -62 22 0
9 -62 -26 -23 0
9 -70 29 0
9 -70 -33 -30 0
9 -78 36 0
9 -78 -40 -37 0
9 -47 13 10 0
9 -47 -8 0
9 -55 20 17 0
9 -55 -15 0
9 -63 27 24 0
9 -63 -22 0
9 -71 34 31 0
9 -71 -29 0
9 -79 41 38 0
9 -79 -36 0
9 -48 10 0
9 -48 -13 -8 0
9 -56 17 0
9 -56 -20 -15 0
9 -64 24 0
9 -64 -27 -22 0
9 -72 31 0
9 -72 -34 -29 0
9 -80 38 0
9 -80 -41 -36 0
9 -49 14 0
9 -49 -10 -8 0
9 -57 21 0
9 -57 -17 -15 0
9 -65 28 0
9 -65 -24 -22 0
9 -73 35 0
9 -73 -31 -29 0
9 -81 42 0
9 -81 -38 -36 0
9 -50 -14 -10 -8 0
9 -58 -21 -17 -15 0
9 -66 -28 -24 -22 0
9 -74 -35 -31 -29 0
9 -82 -42 -38 -36 0
9 43 -11 -9 -8 0
9 44 -9 -8 11 0
9 45 -12 -8 9 0
9 46 -8 12 9 0
9 47 -13 -10 8 0
9 48 -10 13 8 0
9 49 -14 10 8 0
9 50 14 10 8 0
9 51 -18 -16 -15 0
9 52 -16 -15 18 0
9 53 -19 -15 16 0
9 54 -15 19 16 0
9 55 -20 -17 15 0
9 56 -17 20 15 0
9 57 -21 17 15 0
9 58 21 17 15 0
9 59 -25 -23 -22 0
9 60 -23 -22 25 0
9 61 -26 -22 23 0
9 62 -22 26 23 0
9 63 -27 -24 22 0
9 64 -24 27 22 0
9 65 -28 24 22 0
9 66 28 24 22 0
9 67 -32 -30 -29 0
9 68 -30 -29 32 0
9 69 -33 -29 30 0
9 70 -29 33 30 0
9 71 -34 -31 29 0
9 72 -31 34 29 0
9 73 -35 31 29 0
9 74 35 31 29 0
9 75 -39 -37 -36 0
9 76 -37 -36 39 0
9 77 -40 -36 37 0
9 78 -36 40 37 0
9 79 -41 -38 36 0
9 80 -38 41 36 0
9 81 -42 38 36 0
9 82 42 38 36 0
9 -1 8 0
9 -1 -36 0
9 -2 9 0
9 -2 -37 0
9 -3 10 0
9 -3 -38 0
9 -4 11 0
9 -4 -39 0
9 -5 12 0
9 -5 -40 0
9 -6 13 0
9 -6 -41 0
9 -7 14 0
9 -7 -42 0
9 -43 -83 99 0
9 -51 -83 101 0
9 -59 -83 103 0
9 -67 -83 105 0
9 -75 -83 107 0
9 -44 -85 99 0
9 -52 -85 101 0
9 -60 -85 103 0
9 -68 -85 105 0
9 -76 -85 107 0
9 -45 -87 99 0
9 -53 -87 101 0
9 -61 -87 103 0
9 -69 -87 105 0
9 -77 -87 107 0
9 -46 -89 99 0
9 -54 -89 101 0
9 -62 -89 103 0
9 -70 -89 105 0
9 -78 -89 107 0
9 -47 -91 99 0
9 -55 -91 101 0
9 -63 -91 103 0
9 -71 -91 105 0
9 -79 -91 107 0
9 -48 -93 99 0
9 -56 -93 101 0
9 -64 -93 103 0
9 -72 -93 105 0
9 -80 -93 107 0
9 -49 -95 99 0
9 -57 -95 101 0
9 -65 -95 103 0
9 -73 -95 105 0
9 -81 -95 107 0
9 -50 -97 99 0
9 -58 -97 101 0
9 -66 -97 103 0
9 -74 -97 105 0
9 -82 -97 107 0
9 -43 83 -99 0
9 -51 83 -101 0
9 -59 83 -103 0
9 -67 83 -105 0
9 -75 83 -107 0
9 -44 85 -99 0
9 -52 85 -101 0
9 -60 85 -103 0
9 -68 85 -105 0
9 -76 85 -107 0
9 -45 87 -99 0
9 -53 87 -101 0
9 -61 87 -103 0
9 -69 87 -105 0
9 -77 87 -107 0
9 -46 89 -99 0
9 -54 89 -101 0
9 -62 89 -103 0
9 -70 89 -105 0
9 -78 89 -107 0
9 -47 91 -99 0
9 -55 91 -101 0
9 -63 91 -103 0
9 -71 91 -105 0
9 -79 91 -107 0
9 -48 93 -99 0
9 -56 93 -101 0
9 -64 93 -103 0
9 -72 93 -105 0
9 -80 93 -107 0
9 -49 95 -99 0
9 -57 95 -101 0
9 -65 95 -103 0
9 -73 95 -105 0
9 -81 95 -107 0
9 -50 97 -99 0
9 -58 97 -101 0
9 -66 97 -103 0
9 -74 97 -105 0
9 -82 97 -107 0
9 -99 0
9 99 101 103 105 107 0
9 -99 101 0
9 99 -101 0
9 109 99 101 0
9 109 101 103 0
9 109 103 105 0
9 109 105 107 0
9 110 99 103 0
9 110 101 105 0
9 110 103 107 0
9 111 99 105 0
9 111 101 107 0
9 112 99 107 0
9 109 -99 -101 0
9 109 -101 -103 0
9 109 -103 -105 0
9 109 -105 -107 0
9 110 -99 -103 0
9 110 -101 -105 0
9 110 -103 -107 0
9 111 -99 -105 0
9 111 -101 -107 0
9 112 -99 -107 0
9 -113 -99 101 0
9 -113 -101 103 0
9 -113 -103 105 0
9 -113 -105 107 0
9 -114 -99 103 0
9 -114 -101 105 0
9 -114 -103 107 0
9 -115 -99 105 0
9 -115 -101 107 0
9 -116 -99 107 0
9 -113 99 -101 0
9 -113 101 -103 0
9 -113 103 -105 0
9 -113 105 -107 0
9 -114 99 -103 0
9 -114 101 -105 0
9 -114 103 -107 0
9 -115 99 -105 0
9 -115 101 -107 0
9 -116 99 -107 0
9 -110 109 0
9 -111 110 0
9 -112 111 0
9 -114 113 0
9 -115 114 0
9 -116 115 0
9 -113 109 0
9 -114 110 0
9 -115 111 0
9 -116 112 0
